<number of tasks>
50

<cycle time>
1000

<order strength>
0.196


<task times>
1 863
2 458
3 420
4 356
5 419
6 406
7 518
8 355
9 437
10 418
11 462
12 597
13 525
14 406
15 317
16 707
17 544
18 467
19 418
20 477
21 450
22 410
23 369
24 329
25 386
26 618
27 424
28 674
29 466
30 590
31 671
32 486
33 380
34 295
35 546
36 629
37 522
38 557
39 547
40 500
41 453
42 499
43 472
44 622
45 488
46 432
47 547
48 569
49 644
50 456

<precedence relations>
1,5
2,6
3,7
3,8
3,9
3,12
4,10
4,11
4,37
5,13
6,14
7,15
8,16
9,17
9,36
10,18
10,36
12,19
13,22
14,21
15,22
16,24
17,20
18,23
18,25
18,27
19,26
20,30
21,31
22,28
22,37
22,44
23,29
26,32
26,49
28,34
29,35
30,33
31,36
32,36
32,37
32,38
32,39
33,40
34,43
35,41
36,42
38,45
39,44
40,47
41,47
42,46
43,49
44,50
45,48

<end>
